\ This file has been generated by DOcplex
\ ENCODING=ISO-8859-1
\Problem name: random17842_6.lp

Minimize
 obj: - 12 x0 - 6 x1 - 3 x2 + 8 x3 + 4 x4 + 2 x5 + [ 32 x3^2 + 32 x3*x4
      + 16 x3*x5 + 8 x4^2 + 8 x4*x5 + 2 x5^2 ]/2
Subject To
 c0: 4 x0 + 2 x1 + x2 + 4 x3 + 2 x4 + x5 = 7

Bounds
 0 <= x0 <= 1
 0 <= x1 <= 1
 0 <= x2 <= 1
 0 <= x3 <= 1
 0 <= x4 <= 1
 0 <= x5 <= 1

Binaries
 x0 x1 x2 x3 x4 x5
End
